c SAT Generator for power-law distributed variable frequencies
c -g u -v 20 -c 91 -k 3 -p 2.750000 -b 3.200000 -f /home/schmidt/Devel/ni-kop-sat/data/ensemble/ruf20-91/ruf20-91-340 -u 1 -U 1 -s 506282621
p cnf 20 91
3 -5 -13 0
-6 -15 16 0
10 12 17 0
-10 14 -16 0
1 -9 -11 0
-8 13 -15 0
-8 -13 17 0
2 -9 14 0
4 -6 -16 0
1 6 -14 0
6 -8 18 0
-15 -17 18 0
-4 15 -16 0
8 13 -19 0
5 -19 20 0
-7 12 -19 0
-3 -5 -9 0
3 -14 -20 0
-2 -7 8 0
-2 -12 -13 0
-5 6 -15 0
-8 -11 -16 0
10 -12 -14 0
1 8 -14 0
7 8 14 0
12 18 -20 0
7 -8 11 0
-6 -12 -18 0
1 6 10 0
-5 -7 17 0
2 8 11 0
-4 7 -8 0
13 -16 20 0
-4 5 -10 0
4 -11 15 0
-9 -12 -19 0
6 12 -20 0
4 10 16 0
6 -18 -20 0
-13 -16 -18 0
-7 -9 -12 0
11 15 -18 0
11 -14 -15 0
10 16 19 0
2 9 16 0
-8 10 16 0
-8 -9 18 0
-2 14 17 0
-7 -14 -18 0
-3 17 20 0
9 -10 -15 0
-9 -12 15 0
8 -15 20 0
-8 -12 -13 0
6 11 -13 0
5 7 20 0
-3 -10 -17 0
2 4 -8 0
-3 -18 -19 0
2 -3 7 0
7 -10 -16 0
-1 -4 -10 0
-5 -16 17 0
-4 -8 -10 0
-1 -14 20 0
10 12 -19 0
-9 -19 -20 0
-2 -7 -16 0
4 -8 9 0
-4 -7 -11 0
8 -9 -17 0
5 11 19 0
-2 -3 -18 0
-8 -9 -12 0
1 -3 18 0
-4 6 -19 0
-11 -13 -15 0
3 11 -17 0
12 14 17 0
4 6 -18 0
1 -3 -10 0
-7 -12 -20 0
-3 -7 9 0
10 -19 20 0
-4 -10 13 0
10 12 20 0
5 -7 -20 0
-3 -5 -11 0
-11 13 16 0
3 4 7 0
1 -14 -18 0
